(set-info :smt-lib-version 2.6)
(set-logic QF_LRA)
(set-info :source |
Fully parameterized specification and verification of a synchronizer   
circuit modeling metastability at various levels of refinement.     
A paper describing this specification, to be published in Designing     
Correct Circuits (DCC), 2006, is available from the authors.            

Geoffrey Brown, Indiana University <geobrown@cs.indiana.edu>
Lee Pike, Galois Connections, Inc. <leepike@galois.com>

Translated into CVC format by Leonardo de Moura.

This benchmark was automatically translated into SMT-LIB format from
CVC format using CVC Lite

|)
(set-info :category "industrial")
(set-info :status sat)
(declare-fun x_0 () Bool)
(declare-fun x_1 () Bool)
(declare-fun x_2 () Real)
(declare-fun x_3 () Real)
(declare-fun x_4 () Bool)
(declare-fun x_5 () Bool)
(declare-fun x_6 () Real)
(declare-fun x_7 () Real)
(declare-fun x_8 () Bool)
(declare-fun x_9 () Bool)
(declare-fun x_10 () Real)
(declare-fun x_11 () Real)
(declare-fun x_12 () Bool)
(declare-fun x_13 () Bool)
(declare-fun x_14 () Real)
(declare-fun x_15 () Real)
(declare-fun x_16 () Bool)
(declare-fun x_17 () Bool)
(declare-fun x_18 () Real)
(declare-fun x_19 () Real)
(declare-fun x_20 () Bool)
(declare-fun x_21 () Bool)
(declare-fun x_22 () Real)
(declare-fun x_23 () Real)
(declare-fun x_24 () Bool)
(declare-fun x_25 () Bool)
(declare-fun x_26 () Real)
(declare-fun x_27 () Real)
(declare-fun x_28 () Bool)
(declare-fun x_29 () Bool)
(declare-fun x_30 () Real)
(declare-fun x_31 () Real)
(declare-fun x_32 () Bool)
(declare-fun x_33 () Bool)
(declare-fun x_34 () Real)
(declare-fun x_35 () Real)
(declare-fun x_36 () Bool)
(declare-fun x_37 () Bool)
(declare-fun x_38 () Real)
(declare-fun x_39 () Real)
(declare-fun x_40 () Bool)
(declare-fun x_41 () Bool)
(declare-fun x_42 () Real)
(declare-fun x_43 () Real)
(declare-fun x_44 () Bool)
(declare-fun x_45 () Bool)
(declare-fun x_46 () Real)
(declare-fun x_47 () Real)
(declare-fun x_48 () Bool)
(declare-fun x_49 () Bool)
(declare-fun x_50 () Real)
(declare-fun x_51 () Real)
(declare-fun x_52 () Bool)
(declare-fun x_53 () Bool)
(declare-fun x_54 () Real)
(declare-fun x_55 () Real)
(declare-fun x_56 () Bool)
(declare-fun x_57 () Bool)
(declare-fun x_58 () Real)
(declare-fun x_59 () Real)
(declare-fun x_60 () Bool)
(declare-fun x_61 () Bool)
(declare-fun x_62 () Real)
(declare-fun x_63 () Real)
(declare-fun x_64 () Bool)
(declare-fun x_65 () Bool)
(declare-fun x_66 () Real)
(declare-fun x_67 () Real)
(declare-fun x_68 () Real)
(declare-fun x_69 () Real)
(declare-fun x_70 () Real)
(declare-fun x_71 () Real)
(declare-fun x_72 () Real)
(declare-fun x_73 () Real)
(declare-fun x_74 () Real)
(declare-fun x_75 () Real)
(declare-fun x_76 () Real)
(declare-fun x_77 () Real)
(declare-fun x_78 () Bool)
(declare-fun x_79 () Bool)
(declare-fun x_80 () Real)
(declare-fun x_81 () Real)
(declare-fun x_82 () Real)
(declare-fun x_83 () Real)
(declare-fun x_84 () Bool)
(declare-fun x_85 () Bool)
(declare-fun x_86 () Bool)
(declare-fun x_87 () Bool)
(declare-fun x_88 () Bool)
(declare-fun x_89 () Real)
(declare-fun x_90 () Bool)
(declare-fun x_91 () Real)
(declare-fun x_92 () Real)
(declare-fun x_93 () Real)
(declare-fun x_94 () Real)
(declare-fun x_95 () Real)
(declare-fun x_96 () Real)
(declare-fun x_97 () Real)
(declare-fun x_98 () Real)
(declare-fun x_99 () Real)
(declare-fun x_100 () Bool)
(declare-fun x_101 () Real)
(declare-fun x_102 () Bool)
(declare-fun x_103 () Bool)
(declare-fun x_104 () Real)
(declare-fun x_105 () Bool)
(declare-fun x_106 () Real)
(declare-fun x_107 () Real)
(declare-fun x_108 () Real)
(declare-fun x_109 () Real)
(declare-fun x_110 () Real)
(declare-fun x_111 () Real)
(declare-fun x_112 () Real)
(declare-fun x_113 () Real)
(declare-fun x_114 () Bool)
(declare-fun x_115 () Real)
(declare-fun x_116 () Bool)
(declare-fun x_117 () Bool)
(declare-fun x_118 () Real)
(declare-fun x_119 () Bool)
(declare-fun x_120 () Real)
(declare-fun x_121 () Real)
(declare-fun x_122 () Real)
(declare-fun x_123 () Real)
(declare-fun x_124 () Real)
(declare-fun x_125 () Real)
(declare-fun x_126 () Real)
(declare-fun x_127 () Real)
(declare-fun x_128 () Bool)
(declare-fun x_129 () Real)
(declare-fun x_130 () Bool)
(declare-fun x_131 () Bool)
(declare-fun x_132 () Real)
(declare-fun x_133 () Bool)
(declare-fun x_134 () Real)
(declare-fun x_135 () Real)
(declare-fun x_136 () Real)
(declare-fun x_137 () Real)
(declare-fun x_138 () Real)
(declare-fun x_139 () Real)
(declare-fun x_140 () Real)
(declare-fun x_141 () Real)
(declare-fun x_142 () Bool)
(declare-fun x_143 () Real)
(declare-fun x_144 () Bool)
(declare-fun x_145 () Bool)
(declare-fun x_146 () Real)
(declare-fun x_147 () Bool)
(declare-fun x_148 () Real)
(declare-fun x_149 () Real)
(declare-fun x_150 () Real)
(declare-fun x_151 () Real)
(declare-fun x_152 () Real)
(declare-fun x_153 () Real)
(declare-fun x_154 () Real)
(declare-fun x_155 () Real)
(declare-fun x_156 () Bool)
(declare-fun x_157 () Real)
(declare-fun x_158 () Bool)
(declare-fun x_159 () Bool)
(declare-fun x_160 () Real)
(declare-fun x_161 () Bool)
(declare-fun x_162 () Real)
(declare-fun x_163 () Real)
(declare-fun x_164 () Real)
(declare-fun x_165 () Real)
(declare-fun x_166 () Real)
(declare-fun x_167 () Real)
(declare-fun x_168 () Real)
(declare-fun x_169 () Real)
(declare-fun x_170 () Bool)
(declare-fun x_171 () Real)
(declare-fun x_172 () Bool)
(declare-fun x_173 () Bool)
(declare-fun x_174 () Real)
(declare-fun x_175 () Bool)
(declare-fun x_176 () Real)
(declare-fun x_177 () Real)
(declare-fun x_178 () Real)
(declare-fun x_179 () Real)
(declare-fun x_180 () Real)
(declare-fun x_181 () Real)
(declare-fun x_182 () Real)
(declare-fun x_183 () Real)
(declare-fun x_184 () Bool)
(declare-fun x_185 () Real)
(declare-fun x_186 () Bool)
(declare-fun x_187 () Bool)
(declare-fun x_188 () Real)
(declare-fun x_189 () Bool)
(declare-fun x_190 () Real)
(declare-fun x_191 () Real)
(declare-fun x_192 () Real)
(declare-fun x_193 () Real)
(declare-fun x_194 () Real)
(declare-fun x_195 () Real)
(declare-fun x_196 () Real)
(declare-fun x_197 () Real)
(declare-fun x_198 () Bool)
(declare-fun x_199 () Real)
(declare-fun x_200 () Bool)
(declare-fun x_201 () Bool)
(declare-fun x_202 () Real)
(declare-fun x_203 () Bool)
(declare-fun x_204 () Real)
(declare-fun x_205 () Real)
(declare-fun x_206 () Real)
(declare-fun x_207 () Real)
(declare-fun x_208 () Real)
(declare-fun x_209 () Real)
(declare-fun x_210 () Real)
(declare-fun x_211 () Real)
(declare-fun x_212 () Bool)
(declare-fun x_213 () Real)
(declare-fun x_214 () Bool)
(declare-fun x_215 () Bool)
(declare-fun x_216 () Real)
(declare-fun x_217 () Bool)
(declare-fun x_218 () Real)
(declare-fun x_219 () Real)
(declare-fun x_220 () Real)
(declare-fun x_221 () Real)
(declare-fun x_222 () Real)
(declare-fun x_223 () Real)
(declare-fun x_224 () Real)
(declare-fun x_225 () Real)
(declare-fun x_226 () Bool)
(declare-fun x_227 () Real)
(declare-fun x_228 () Bool)
(declare-fun x_229 () Bool)
(declare-fun x_230 () Real)
(declare-fun x_231 () Bool)
(declare-fun x_232 () Real)
(declare-fun x_233 () Real)
(declare-fun x_234 () Real)
(declare-fun x_235 () Real)
(declare-fun x_236 () Real)
(declare-fun x_237 () Real)
(declare-fun x_238 () Real)
(declare-fun x_239 () Real)
(declare-fun x_240 () Bool)
(declare-fun x_241 () Real)
(declare-fun x_242 () Bool)
(declare-fun x_243 () Bool)
(declare-fun x_244 () Real)
(declare-fun x_245 () Bool)
(declare-fun x_246 () Real)
(declare-fun x_247 () Real)
(declare-fun x_248 () Real)
(declare-fun x_249 () Real)
(declare-fun x_250 () Real)
(declare-fun x_251 () Real)
(declare-fun x_252 () Real)
(declare-fun x_253 () Real)
(declare-fun x_254 () Bool)
(declare-fun x_255 () Real)
(declare-fun x_256 () Bool)
(declare-fun x_257 () Bool)
(declare-fun x_258 () Real)
(declare-fun x_259 () Bool)
(declare-fun x_260 () Real)
(declare-fun x_261 () Real)
(declare-fun x_262 () Real)
(declare-fun x_263 () Real)
(declare-fun x_264 () Real)
(declare-fun x_265 () Real)
(declare-fun x_266 () Real)
(declare-fun x_267 () Real)
(declare-fun x_268 () Bool)
(declare-fun x_269 () Real)
(declare-fun x_270 () Bool)
(declare-fun x_271 () Bool)
(declare-fun x_272 () Real)
(declare-fun x_273 () Bool)
(declare-fun x_274 () Real)
(declare-fun x_275 () Real)
(declare-fun x_276 () Real)
(declare-fun x_277 () Real)
(declare-fun x_278 () Real)
(declare-fun x_279 () Real)
(declare-fun x_280 () Real)
(declare-fun x_281 () Real)
(declare-fun x_282 () Bool)
(declare-fun x_283 () Real)
(declare-fun x_284 () Bool)
(declare-fun x_285 () Bool)
(declare-fun x_286 () Real)
(declare-fun x_287 () Bool)
(declare-fun x_288 () Real)
(declare-fun x_289 () Real)
(declare-fun x_290 () Real)
(declare-fun x_291 () Real)
(declare-fun x_292 () Real)
(declare-fun x_293 () Real)
(declare-fun x_294 () Real)
(declare-fun x_295 () Real)
(declare-fun x_296 () Bool)
(declare-fun x_297 () Real)
(declare-fun x_298 () Bool)
(declare-fun x_299 () Bool)
(declare-fun x_300 () Real)
(declare-fun x_301 () Bool)
(declare-fun x_302 () Real)
(declare-fun x_303 () Real)
(declare-fun x_304 () Real)
(declare-fun x_305 () Real)
(declare-fun x_306 () Real)
(declare-fun x_307 () Real)
(declare-fun x_308 () Real)
(declare-fun x_309 () Real)
(declare-fun x_310 () Bool)
(declare-fun x_311 () Real)
(declare-fun x_312 () Real)
(declare-fun x_313 () Bool)
(declare-fun x_314 () Bool)
(declare-fun x_315 () Bool)
(declare-fun x_316 () Bool)
(declare-fun x_317 () Real)
(declare-fun x_318 () Bool)
(declare-fun x_319 () Real)
(declare-fun x_320 () Real)
(declare-fun x_321 () Real)
(declare-fun x_322 () Real)
(assert (let ((?v_214 (= x_68 x_69)) (?v_215 (= x_70 x_71)) (?v_216 (= x_72 x_73)) (?v_212 (= x_74 x_75))) (let ((?v_217 (not ?v_212)) (?v_220 (= x_76 x_77)) (?v_209 (= x_78 x_79)) (?v_210 (= x_7 x_3)) (?v_213 (ite (<= x_70 x_74) x_70 x_74)) (?v_208 (ite (<= x_74 x_70) x_74 x_70)) (?v_201 (= x_95 x_68)) (?v_202 (= x_71 x_96)) (?v_203 (= x_97 x_72)) (?v_199 (= x_75 x_98))) (let ((?v_204 (not ?v_199)) (?v_207 (= x_99 x_76)) (?v_196 (= x_100 x_78)) (?v_197 (= x_11 x_7)) (?v_200 (ite (<= x_71 x_75) x_71 x_75)) (?v_195 (ite (<= x_75 x_71) x_75 x_71)) (?v_188 (= x_109 x_95)) (?v_189 (= x_96 x_110)) (?v_190 (= x_111 x_97)) (?v_186 (= x_98 x_112))) (let ((?v_191 (not ?v_186)) (?v_194 (= x_113 x_99)) (?v_183 (= x_114 x_100)) (?v_184 (= x_15 x_11)) (?v_187 (ite (<= x_96 x_98) x_96 x_98)) (?v_182 (ite (<= x_98 x_96) x_98 x_96)) (?v_175 (= x_123 x_109)) (?v_176 (= x_110 x_124)) (?v_177 (= x_125 x_111)) (?v_173 (= x_112 x_126))) (let ((?v_178 (not ?v_173)) (?v_181 (= x_127 x_113)) (?v_170 (= x_128 x_114)) (?v_171 (= x_19 x_15)) (?v_174 (ite (<= x_110 x_112) x_110 x_112)) (?v_169 (ite (<= x_112 x_110) x_112 x_110)) (?v_162 (= x_137 x_123)) (?v_163 (= x_124 x_138)) (?v_164 (= x_139 x_125)) (?v_160 (= x_126 x_140))) (let ((?v_165 (not ?v_160)) (?v_168 (= x_141 x_127)) (?v_157 (= x_142 x_128)) (?v_158 (= x_23 x_19)) (?v_161 (ite (<= x_124 x_126) x_124 x_126)) (?v_156 (ite (<= x_126 x_124) x_126 x_124)) (?v_149 (= x_151 x_137)) (?v_150 (= x_138 x_152)) (?v_151 (= x_153 x_139)) (?v_147 (= x_140 x_154))) (let ((?v_152 (not ?v_147)) (?v_155 (= x_155 x_141)) (?v_144 (= x_156 x_142)) (?v_145 (= x_27 x_23)) (?v_148 (ite (<= x_138 x_140) x_138 x_140)) (?v_143 (ite (<= x_140 x_138) x_140 x_138)) (?v_136 (= x_165 x_151)) (?v_137 (= x_152 x_166)) (?v_138 (= x_167 x_153)) (?v_134 (= x_154 x_168))) (let ((?v_139 (not ?v_134)) (?v_142 (= x_169 x_155)) (?v_131 (= x_170 x_156)) (?v_132 (= x_31 x_27)) (?v_135 (ite (<= x_152 x_154) x_152 x_154)) (?v_130 (ite (<= x_154 x_152) x_154 x_152)) (?v_123 (= x_179 x_165)) (?v_124 (= x_166 x_180)) (?v_125 (= x_181 x_167)) (?v_121 (= x_168 x_182))) (let ((?v_126 (not ?v_121)) (?v_129 (= x_183 x_169)) (?v_118 (= x_184 x_170)) (?v_119 (= x_35 x_31)) (?v_122 (ite (<= x_166 x_168) x_166 x_168)) (?v_117 (ite (<= x_168 x_166) x_168 x_166)) (?v_110 (= x_193 x_179)) (?v_111 (= x_180 x_194)) (?v_112 (= x_195 x_181)) (?v_108 (= x_182 x_196))) (let ((?v_113 (not ?v_108)) (?v_116 (= x_197 x_183)) (?v_105 (= x_198 x_184)) (?v_106 (= x_39 x_35)) (?v_109 (ite (<= x_180 x_182) x_180 x_182)) (?v_104 (ite (<= x_182 x_180) x_182 x_180)) (?v_97 (= x_207 x_193)) (?v_98 (= x_194 x_208)) (?v_99 (= x_209 x_195)) (?v_95 (= x_196 x_210))) (let ((?v_100 (not ?v_95)) (?v_103 (= x_211 x_197)) (?v_92 (= x_212 x_198)) (?v_93 (= x_43 x_39)) (?v_96 (ite (<= x_194 x_196) x_194 x_196)) (?v_91 (ite (<= x_196 x_194) x_196 x_194)) (?v_84 (= x_221 x_207)) (?v_85 (= x_208 x_222)) (?v_86 (= x_223 x_209)) (?v_82 (= x_210 x_224))) (let ((?v_87 (not ?v_82)) (?v_90 (= x_225 x_211)) (?v_79 (= x_226 x_212)) (?v_80 (= x_47 x_43)) (?v_83 (ite (<= x_208 x_210) x_208 x_210)) (?v_78 (ite (<= x_210 x_208) x_210 x_208)) (?v_71 (= x_235 x_221)) (?v_72 (= x_222 x_236)) (?v_73 (= x_237 x_223)) (?v_69 (= x_224 x_238))) (let ((?v_74 (not ?v_69)) (?v_77 (= x_239 x_225)) (?v_66 (= x_240 x_226)) (?v_67 (= x_51 x_47)) (?v_70 (ite (<= x_222 x_224) x_222 x_224)) (?v_65 (ite (<= x_224 x_222) x_224 x_222)) (?v_58 (= x_249 x_235)) (?v_59 (= x_236 x_250)) (?v_60 (= x_251 x_237)) (?v_56 (= x_238 x_252))) (let ((?v_61 (not ?v_56)) (?v_64 (= x_253 x_239)) (?v_53 (= x_254 x_240)) (?v_54 (= x_55 x_51)) (?v_57 (ite (<= x_236 x_238) x_236 x_238)) (?v_52 (ite (<= x_238 x_236) x_238 x_236)) (?v_45 (= x_263 x_249)) (?v_46 (= x_250 x_264)) (?v_47 (= x_265 x_251)) (?v_43 (= x_252 x_266))) (let ((?v_48 (not ?v_43)) (?v_51 (= x_267 x_253)) (?v_40 (= x_268 x_254)) (?v_41 (= x_59 x_55)) (?v_44 (ite (<= x_250 x_252) x_250 x_252)) (?v_39 (ite (<= x_252 x_250) x_252 x_250)) (?v_32 (= x_277 x_263)) (?v_33 (= x_264 x_278)) (?v_34 (= x_279 x_265)) (?v_30 (= x_266 x_280))) (let ((?v_35 (not ?v_30)) (?v_38 (= x_281 x_267)) (?v_27 (= x_282 x_268)) (?v_28 (= x_63 x_59)) (?v_31 (ite (<= x_264 x_266) x_264 x_266)) (?v_26 (ite (<= x_266 x_264) x_266 x_264)) (?v_19 (= x_291 x_277)) (?v_20 (= x_278 x_292)) (?v_21 (= x_293 x_279)) (?v_17 (= x_280 x_294))) (let ((?v_22 (not ?v_17)) (?v_25 (= x_295 x_281)) (?v_14 (= x_296 x_282)) (?v_15 (= x_67 x_63)) (?v_18 (ite (<= x_278 x_280) x_278 x_280)) (?v_13 (ite (<= x_280 x_278) x_280 x_278)) (?v_6 (= x_305 x_291)) (?v_7 (= x_292 x_306)) (?v_8 (= x_307 x_293)) (?v_4 (= x_294 x_308))) (let ((?v_9 (not ?v_4)) (?v_12 (= x_309 x_295)) (?v_1 (= x_310 x_296)) (?v_2 (= x_311 x_67)) (?v_5 (ite (<= x_292 x_294) x_292 x_294)) (?v_0 (ite (<= x_294 x_292) x_294 x_292)) (?v_3 (= x_314 x_65)) (?v_11 (= x_67 x_311)) (?v_16 (= x_65 x_61)) (?v_24 (= x_63 x_67)) (?v_29 (= x_61 x_57)) (?v_37 (= x_59 x_63)) (?v_42 (= x_57 x_53)) (?v_50 (= x_55 x_59)) (?v_55 (= x_53 x_49)) (?v_63 (= x_51 x_55)) (?v_68 (= x_49 x_45)) (?v_76 (= x_47 x_51)) (?v_81 (= x_45 x_41)) (?v_89 (= x_43 x_47)) (?v_94 (= x_41 x_37)) (?v_102 (= x_39 x_43)) (?v_107 (= x_37 x_33)) (?v_115 (= x_35 x_39)) (?v_120 (= x_33 x_29)) (?v_128 (= x_31 x_35)) (?v_133 (= x_29 x_25)) (?v_141 (= x_27 x_31)) (?v_146 (= x_25 x_21)) (?v_154 (= x_23 x_27)) (?v_159 (= x_21 x_17)) (?v_167 (= x_19 x_23)) (?v_172 (= x_17 x_13)) (?v_180 (= x_15 x_19)) (?v_185 (= x_13 x_9)) (?v_193 (= x_11 x_15)) (?v_198 (= x_9 x_5)) (?v_206 (= x_7 x_11)) (?v_211 (= x_5 x_1)) (?v_219 (= x_3 x_7))) (let ((?v_10 (+ ?v_5 x_82)) (?v_23 (+ ?v_18 x_82)) (?v_36 (+ ?v_31 x_82)) (?v_49 (+ ?v_44 x_82)) (?v_62 (+ ?v_57 x_82)) (?v_75 (+ ?v_70 x_82)) (?v_88 (+ ?v_83 x_82)) (?v_101 (+ ?v_96 x_82)) (?v_114 (+ ?v_109 x_82)) (?v_127 (+ ?v_122 x_82)) (?v_140 (+ ?v_135 x_82)) (?v_153 (+ ?v_148 x_82)) (?v_166 (+ ?v_161 x_82)) (?v_179 (+ ?v_174 x_82)) (?v_192 (+ ?v_187 x_82)) (?v_205 (+ ?v_200 x_82)) (?v_218 (+ ?v_213 x_82))) (and (and (and (and (and (and (and (and (and (and (and (and (and (and (and (and (and (and (and (and (and (and (and (and (and (and (and (and (and (and (and (and (and (and (and (and (and (and (and (and (and (and (and (and (and (and (and (and (and (and (and (and (and (and (and (and (and (and (and (and (and (and (and (and (and (and (and (and (and (and (and (and (and (and (and (and (and (and (and (and (and (and (and (and (and (and (and (and (and (and (and (and (and (and (> x_80 0) (> x_81 0)) (>= x_82 0)) (< x_82 x_80)) (< x_82 x_81)) (>= x_93 0)) (< x_93 x_80)) (< x_93 x_81)) (or (= x_64 x_65) (= x_66 x_67))) (or (= x_60 x_61) (= x_62 x_63))) (or (= x_56 x_57) (= x_58 x_59))) (or (= x_52 x_53) (= x_54 x_55))) (or (= x_48 x_49) (= x_50 x_51))) (or (= x_44 x_45) (= x_46 x_47))) (or (= x_40 x_41) (= x_42 x_43))) (or (= x_36 x_37) (= x_38 x_39))) (or (= x_32 x_33) (= x_34 x_35))) (or (= x_28 x_29) (= x_30 x_31))) (or (= x_24 x_25) (= x_26 x_27))) (or (= x_20 x_21) (= x_22 x_23))) (or (= x_16 x_17) (= x_18 x_19))) (or (= x_12 x_13) (= x_14 x_15))) (or (= x_8 x_9) (= x_10 x_11))) (or (= x_4 x_5) (= x_6 x_7))) (or (= x_0 x_1) (= x_2 x_3))) (or (and (and (and (and (and (and (and (and (and (= x_312 0) (= x_313 x_301)) (= ?v_0 x_294)) (<= (+ ?v_0 x_80) x_308)) (or ?v_3 (= x_314 x_64))) (= x_315 x_298)) (= x_316 x_299)) (= x_306 x_292)) ?v_1) ?v_2) (and (and (and (and (and (and (and (and (and (= x_312 1) (= x_316 x_298)) (= ?v_0 x_292)) (<= (+ ?v_0 x_81) x_306)) (or (and (and (= x_317 0) ?v_1) ?v_2) (and (and (= x_317 1) (= x_296 x_299)) (= x_310 (not x_296))))) (= x_318 x_301)) (= x_313 x_64)) (= x_319 x_66)) (= x_308 x_294)) ?v_3))) (or (or (and (and (and (= x_320 0) ?v_9) (or (not (<= x_291 ?v_5)) (= x_318 x_296))) ?v_6) (and (and (and (= x_320 1) ?v_4) (xor x_296 x_310)) (= x_305 ?v_10))) (and (and (and (= x_320 2) ?v_4) (= x_296 x_310)) ?v_6))) (or (or (and (and (and (= x_321 0) (not ?v_7)) (or (not (<= x_293 ?v_0)) (= x_315 x_65))) ?v_8) (and (and (and (= x_321 1) ?v_7) (xor x_65 x_314)) (= x_307 (+ ?v_0 x_93)))) (and (and (and (= x_321 2) ?v_7) (= x_65 x_314)) ?v_8))) (or (or (and (and (and (= x_322 0) ?v_9) (or (not (<= x_295 ?v_5)) (= x_319 x_67))) ?v_12) (and (and (and (= x_322 1) ?v_4) (not ?v_11)) (= x_309 ?v_10))) (and (and (and (= x_322 2) ?v_4) ?v_11) ?v_12))) (or (and (and (and (and (and (and (and (and (and (= x_297 0) (= x_64 x_287)) (= ?v_13 x_280)) (<= (+ ?v_13 x_80) x_294)) (or ?v_16 (= x_65 x_60))) (= x_298 x_284)) (= x_299 x_285)) (= x_292 x_278)) ?v_14) ?v_15) (and (and (and (and (and (and (and (and (and (= x_297 1) (= x_299 x_284)) (= ?v_13 x_278)) (<= (+ ?v_13 x_81) x_292)) (or (and (and (= x_300 0) ?v_14) ?v_15) (and (and (= x_300 1) (= x_282 x_285)) (= x_296 (not x_282))))) (= x_301 x_287)) (= x_64 x_60)) (= x_66 x_62)) (= x_294 x_280)) ?v_16))) (or (or (and (and (and (= x_302 0) ?v_22) (or (not (<= x_277 ?v_18)) (= x_301 x_282))) ?v_19) (and (and (and (= x_302 1) ?v_17) (xor x_282 x_296)) (= x_291 ?v_23))) (and (and (and (= x_302 2) ?v_17) (= x_282 x_296)) ?v_19))) (or (or (and (and (and (= x_303 0) (not ?v_20)) (or (not (<= x_279 ?v_13)) (= x_298 x_61))) ?v_21) (and (and (and (= x_303 1) ?v_20) (xor x_61 x_65)) (= x_293 (+ ?v_13 x_93)))) (and (and (and (= x_303 2) ?v_20) (= x_61 x_65)) ?v_21))) (or (or (and (and (and (= x_304 0) ?v_22) (or (not (<= x_281 ?v_18)) (= x_66 x_63))) ?v_25) (and (and (and (= x_304 1) ?v_17) (not ?v_24)) (= x_295 ?v_23))) (and (and (and (= x_304 2) ?v_17) ?v_24) ?v_25))) (or (and (and (and (and (and (and (and (and (and (= x_283 0) (= x_60 x_273)) (= ?v_26 x_266)) (<= (+ ?v_26 x_80) x_280)) (or ?v_29 (= x_61 x_56))) (= x_284 x_270)) (= x_285 x_271)) (= x_278 x_264)) ?v_27) ?v_28) (and (and (and (and (and (and (and (and (and (= x_283 1) (= x_285 x_270)) (= ?v_26 x_264)) (<= (+ ?v_26 x_81) x_278)) (or (and (and (= x_286 0) ?v_27) ?v_28) (and (and (= x_286 1) (= x_268 x_271)) (= x_282 (not x_268))))) (= x_287 x_273)) (= x_60 x_56)) (= x_62 x_58)) (= x_280 x_266)) ?v_29))) (or (or (and (and (and (= x_288 0) ?v_35) (or (not (<= x_263 ?v_31)) (= x_287 x_268))) ?v_32) (and (and (and (= x_288 1) ?v_30) (xor x_268 x_282)) (= x_277 ?v_36))) (and (and (and (= x_288 2) ?v_30) (= x_268 x_282)) ?v_32))) (or (or (and (and (and (= x_289 0) (not ?v_33)) (or (not (<= x_265 ?v_26)) (= x_284 x_57))) ?v_34) (and (and (and (= x_289 1) ?v_33) (xor x_57 x_61)) (= x_279 (+ ?v_26 x_93)))) (and (and (and (= x_289 2) ?v_33) (= x_57 x_61)) ?v_34))) (or (or (and (and (and (= x_290 0) ?v_35) (or (not (<= x_267 ?v_31)) (= x_62 x_59))) ?v_38) (and (and (and (= x_290 1) ?v_30) (not ?v_37)) (= x_281 ?v_36))) (and (and (and (= x_290 2) ?v_30) ?v_37) ?v_38))) (or (and (and (and (and (and (and (and (and (and (= x_269 0) (= x_56 x_259)) (= ?v_39 x_252)) (<= (+ ?v_39 x_80) x_266)) (or ?v_42 (= x_57 x_52))) (= x_270 x_256)) (= x_271 x_257)) (= x_264 x_250)) ?v_40) ?v_41) (and (and (and (and (and (and (and (and (and (= x_269 1) (= x_271 x_256)) (= ?v_39 x_250)) (<= (+ ?v_39 x_81) x_264)) (or (and (and (= x_272 0) ?v_40) ?v_41) (and (and (= x_272 1) (= x_254 x_257)) (= x_268 (not x_254))))) (= x_273 x_259)) (= x_56 x_52)) (= x_58 x_54)) (= x_266 x_252)) ?v_42))) (or (or (and (and (and (= x_274 0) ?v_48) (or (not (<= x_249 ?v_44)) (= x_273 x_254))) ?v_45) (and (and (and (= x_274 1) ?v_43) (xor x_254 x_268)) (= x_263 ?v_49))) (and (and (and (= x_274 2) ?v_43) (= x_254 x_268)) ?v_45))) (or (or (and (and (and (= x_275 0) (not ?v_46)) (or (not (<= x_251 ?v_39)) (= x_270 x_53))) ?v_47) (and (and (and (= x_275 1) ?v_46) (xor x_53 x_57)) (= x_265 (+ ?v_39 x_93)))) (and (and (and (= x_275 2) ?v_46) (= x_53 x_57)) ?v_47))) (or (or (and (and (and (= x_276 0) ?v_48) (or (not (<= x_253 ?v_44)) (= x_58 x_55))) ?v_51) (and (and (and (= x_276 1) ?v_43) (not ?v_50)) (= x_267 ?v_49))) (and (and (and (= x_276 2) ?v_43) ?v_50) ?v_51))) (or (and (and (and (and (and (and (and (and (and (= x_255 0) (= x_52 x_245)) (= ?v_52 x_238)) (<= (+ ?v_52 x_80) x_252)) (or ?v_55 (= x_53 x_48))) (= x_256 x_242)) (= x_257 x_243)) (= x_250 x_236)) ?v_53) ?v_54) (and (and (and (and (and (and (and (and (and (= x_255 1) (= x_257 x_242)) (= ?v_52 x_236)) (<= (+ ?v_52 x_81) x_250)) (or (and (and (= x_258 0) ?v_53) ?v_54) (and (and (= x_258 1) (= x_240 x_243)) (= x_254 (not x_240))))) (= x_259 x_245)) (= x_52 x_48)) (= x_54 x_50)) (= x_252 x_238)) ?v_55))) (or (or (and (and (and (= x_260 0) ?v_61) (or (not (<= x_235 ?v_57)) (= x_259 x_240))) ?v_58) (and (and (and (= x_260 1) ?v_56) (xor x_240 x_254)) (= x_249 ?v_62))) (and (and (and (= x_260 2) ?v_56) (= x_240 x_254)) ?v_58))) (or (or (and (and (and (= x_261 0) (not ?v_59)) (or (not (<= x_237 ?v_52)) (= x_256 x_49))) ?v_60) (and (and (and (= x_261 1) ?v_59) (xor x_49 x_53)) (= x_251 (+ ?v_52 x_93)))) (and (and (and (= x_261 2) ?v_59) (= x_49 x_53)) ?v_60))) (or (or (and (and (and (= x_262 0) ?v_61) (or (not (<= x_239 ?v_57)) (= x_54 x_51))) ?v_64) (and (and (and (= x_262 1) ?v_56) (not ?v_63)) (= x_253 ?v_62))) (and (and (and (= x_262 2) ?v_56) ?v_63) ?v_64))) (or (and (and (and (and (and (and (and (and (and (= x_241 0) (= x_48 x_231)) (= ?v_65 x_224)) (<= (+ ?v_65 x_80) x_238)) (or ?v_68 (= x_49 x_44))) (= x_242 x_228)) (= x_243 x_229)) (= x_236 x_222)) ?v_66) ?v_67) (and (and (and (and (and (and (and (and (and (= x_241 1) (= x_243 x_228)) (= ?v_65 x_222)) (<= (+ ?v_65 x_81) x_236)) (or (and (and (= x_244 0) ?v_66) ?v_67) (and (and (= x_244 1) (= x_226 x_229)) (= x_240 (not x_226))))) (= x_245 x_231)) (= x_48 x_44)) (= x_50 x_46)) (= x_238 x_224)) ?v_68))) (or (or (and (and (and (= x_246 0) ?v_74) (or (not (<= x_221 ?v_70)) (= x_245 x_226))) ?v_71) (and (and (and (= x_246 1) ?v_69) (xor x_226 x_240)) (= x_235 ?v_75))) (and (and (and (= x_246 2) ?v_69) (= x_226 x_240)) ?v_71))) (or (or (and (and (and (= x_247 0) (not ?v_72)) (or (not (<= x_223 ?v_65)) (= x_242 x_45))) ?v_73) (and (and (and (= x_247 1) ?v_72) (xor x_45 x_49)) (= x_237 (+ ?v_65 x_93)))) (and (and (and (= x_247 2) ?v_72) (= x_45 x_49)) ?v_73))) (or (or (and (and (and (= x_248 0) ?v_74) (or (not (<= x_225 ?v_70)) (= x_50 x_47))) ?v_77) (and (and (and (= x_248 1) ?v_69) (not ?v_76)) (= x_239 ?v_75))) (and (and (and (= x_248 2) ?v_69) ?v_76) ?v_77))) (or (and (and (and (and (and (and (and (and (and (= x_227 0) (= x_44 x_217)) (= ?v_78 x_210)) (<= (+ ?v_78 x_80) x_224)) (or ?v_81 (= x_45 x_40))) (= x_228 x_214)) (= x_229 x_215)) (= x_222 x_208)) ?v_79) ?v_80) (and (and (and (and (and (and (and (and (and (= x_227 1) (= x_229 x_214)) (= ?v_78 x_208)) (<= (+ ?v_78 x_81) x_222)) (or (and (and (= x_230 0) ?v_79) ?v_80) (and (and (= x_230 1) (= x_212 x_215)) (= x_226 (not x_212))))) (= x_231 x_217)) (= x_44 x_40)) (= x_46 x_42)) (= x_224 x_210)) ?v_81))) (or (or (and (and (and (= x_232 0) ?v_87) (or (not (<= x_207 ?v_83)) (= x_231 x_212))) ?v_84) (and (and (and (= x_232 1) ?v_82) (xor x_212 x_226)) (= x_221 ?v_88))) (and (and (and (= x_232 2) ?v_82) (= x_212 x_226)) ?v_84))) (or (or (and (and (and (= x_233 0) (not ?v_85)) (or (not (<= x_209 ?v_78)) (= x_228 x_41))) ?v_86) (and (and (and (= x_233 1) ?v_85) (xor x_41 x_45)) (= x_223 (+ ?v_78 x_93)))) (and (and (and (= x_233 2) ?v_85) (= x_41 x_45)) ?v_86))) (or (or (and (and (and (= x_234 0) ?v_87) (or (not (<= x_211 ?v_83)) (= x_46 x_43))) ?v_90) (and (and (and (= x_234 1) ?v_82) (not ?v_89)) (= x_225 ?v_88))) (and (and (and (= x_234 2) ?v_82) ?v_89) ?v_90))) (or (and (and (and (and (and (and (and (and (and (= x_213 0) (= x_40 x_203)) (= ?v_91 x_196)) (<= (+ ?v_91 x_80) x_210)) (or ?v_94 (= x_41 x_36))) (= x_214 x_200)) (= x_215 x_201)) (= x_208 x_194)) ?v_92) ?v_93) (and (and (and (and (and (and (and (and (and (= x_213 1) (= x_215 x_200)) (= ?v_91 x_194)) (<= (+ ?v_91 x_81) x_208)) (or (and (and (= x_216 0) ?v_92) ?v_93) (and (and (= x_216 1) (= x_198 x_201)) (= x_212 (not x_198))))) (= x_217 x_203)) (= x_40 x_36)) (= x_42 x_38)) (= x_210 x_196)) ?v_94))) (or (or (and (and (and (= x_218 0) ?v_100) (or (not (<= x_193 ?v_96)) (= x_217 x_198))) ?v_97) (and (and (and (= x_218 1) ?v_95) (xor x_198 x_212)) (= x_207 ?v_101))) (and (and (and (= x_218 2) ?v_95) (= x_198 x_212)) ?v_97))) (or (or (and (and (and (= x_219 0) (not ?v_98)) (or (not (<= x_195 ?v_91)) (= x_214 x_37))) ?v_99) (and (and (and (= x_219 1) ?v_98) (xor x_37 x_41)) (= x_209 (+ ?v_91 x_93)))) (and (and (and (= x_219 2) ?v_98) (= x_37 x_41)) ?v_99))) (or (or (and (and (and (= x_220 0) ?v_100) (or (not (<= x_197 ?v_96)) (= x_42 x_39))) ?v_103) (and (and (and (= x_220 1) ?v_95) (not ?v_102)) (= x_211 ?v_101))) (and (and (and (= x_220 2) ?v_95) ?v_102) ?v_103))) (or (and (and (and (and (and (and (and (and (and (= x_199 0) (= x_36 x_189)) (= ?v_104 x_182)) (<= (+ ?v_104 x_80) x_196)) (or ?v_107 (= x_37 x_32))) (= x_200 x_186)) (= x_201 x_187)) (= x_194 x_180)) ?v_105) ?v_106) (and (and (and (and (and (and (and (and (and (= x_199 1) (= x_201 x_186)) (= ?v_104 x_180)) (<= (+ ?v_104 x_81) x_194)) (or (and (and (= x_202 0) ?v_105) ?v_106) (and (and (= x_202 1) (= x_184 x_187)) (= x_198 (not x_184))))) (= x_203 x_189)) (= x_36 x_32)) (= x_38 x_34)) (= x_196 x_182)) ?v_107))) (or (or (and (and (and (= x_204 0) ?v_113) (or (not (<= x_179 ?v_109)) (= x_203 x_184))) ?v_110) (and (and (and (= x_204 1) ?v_108) (xor x_184 x_198)) (= x_193 ?v_114))) (and (and (and (= x_204 2) ?v_108) (= x_184 x_198)) ?v_110))) (or (or (and (and (and (= x_205 0) (not ?v_111)) (or (not (<= x_181 ?v_104)) (= x_200 x_33))) ?v_112) (and (and (and (= x_205 1) ?v_111) (xor x_33 x_37)) (= x_195 (+ ?v_104 x_93)))) (and (and (and (= x_205 2) ?v_111) (= x_33 x_37)) ?v_112))) (or (or (and (and (and (= x_206 0) ?v_113) (or (not (<= x_183 ?v_109)) (= x_38 x_35))) ?v_116) (and (and (and (= x_206 1) ?v_108) (not ?v_115)) (= x_197 ?v_114))) (and (and (and (= x_206 2) ?v_108) ?v_115) ?v_116))) (or (and (and (and (and (and (and (and (and (and (= x_185 0) (= x_32 x_175)) (= ?v_117 x_168)) (<= (+ ?v_117 x_80) x_182)) (or ?v_120 (= x_33 x_28))) (= x_186 x_172)) (= x_187 x_173)) (= x_180 x_166)) ?v_118) ?v_119) (and (and (and (and (and (and (and (and (and (= x_185 1) (= x_187 x_172)) (= ?v_117 x_166)) (<= (+ ?v_117 x_81) x_180)) (or (and (and (= x_188 0) ?v_118) ?v_119) (and (and (= x_188 1) (= x_170 x_173)) (= x_184 (not x_170))))) (= x_189 x_175)) (= x_32 x_28)) (= x_34 x_30)) (= x_182 x_168)) ?v_120))) (or (or (and (and (and (= x_190 0) ?v_126) (or (not (<= x_165 ?v_122)) (= x_189 x_170))) ?v_123) (and (and (and (= x_190 1) ?v_121) (xor x_170 x_184)) (= x_179 ?v_127))) (and (and (and (= x_190 2) ?v_121) (= x_170 x_184)) ?v_123))) (or (or (and (and (and (= x_191 0) (not ?v_124)) (or (not (<= x_167 ?v_117)) (= x_186 x_29))) ?v_125) (and (and (and (= x_191 1) ?v_124) (xor x_29 x_33)) (= x_181 (+ ?v_117 x_93)))) (and (and (and (= x_191 2) ?v_124) (= x_29 x_33)) ?v_125))) (or (or (and (and (and (= x_192 0) ?v_126) (or (not (<= x_169 ?v_122)) (= x_34 x_31))) ?v_129) (and (and (and (= x_192 1) ?v_121) (not ?v_128)) (= x_183 ?v_127))) (and (and (and (= x_192 2) ?v_121) ?v_128) ?v_129))) (or (and (and (and (and (and (and (and (and (and (= x_171 0) (= x_28 x_161)) (= ?v_130 x_154)) (<= (+ ?v_130 x_80) x_168)) (or ?v_133 (= x_29 x_24))) (= x_172 x_158)) (= x_173 x_159)) (= x_166 x_152)) ?v_131) ?v_132) (and (and (and (and (and (and (and (and (and (= x_171 1) (= x_173 x_158)) (= ?v_130 x_152)) (<= (+ ?v_130 x_81) x_166)) (or (and (and (= x_174 0) ?v_131) ?v_132) (and (and (= x_174 1) (= x_156 x_159)) (= x_170 (not x_156))))) (= x_175 x_161)) (= x_28 x_24)) (= x_30 x_26)) (= x_168 x_154)) ?v_133))) (or (or (and (and (and (= x_176 0) ?v_139) (or (not (<= x_151 ?v_135)) (= x_175 x_156))) ?v_136) (and (and (and (= x_176 1) ?v_134) (xor x_156 x_170)) (= x_165 ?v_140))) (and (and (and (= x_176 2) ?v_134) (= x_156 x_170)) ?v_136))) (or (or (and (and (and (= x_177 0) (not ?v_137)) (or (not (<= x_153 ?v_130)) (= x_172 x_25))) ?v_138) (and (and (and (= x_177 1) ?v_137) (xor x_25 x_29)) (= x_167 (+ ?v_130 x_93)))) (and (and (and (= x_177 2) ?v_137) (= x_25 x_29)) ?v_138))) (or (or (and (and (and (= x_178 0) ?v_139) (or (not (<= x_155 ?v_135)) (= x_30 x_27))) ?v_142) (and (and (and (= x_178 1) ?v_134) (not ?v_141)) (= x_169 ?v_140))) (and (and (and (= x_178 2) ?v_134) ?v_141) ?v_142))) (or (and (and (and (and (and (and (and (and (and (= x_157 0) (= x_24 x_147)) (= ?v_143 x_140)) (<= (+ ?v_143 x_80) x_154)) (or ?v_146 (= x_25 x_20))) (= x_158 x_144)) (= x_159 x_145)) (= x_152 x_138)) ?v_144) ?v_145) (and (and (and (and (and (and (and (and (and (= x_157 1) (= x_159 x_144)) (= ?v_143 x_138)) (<= (+ ?v_143 x_81) x_152)) (or (and (and (= x_160 0) ?v_144) ?v_145) (and (and (= x_160 1) (= x_142 x_145)) (= x_156 (not x_142))))) (= x_161 x_147)) (= x_24 x_20)) (= x_26 x_22)) (= x_154 x_140)) ?v_146))) (or (or (and (and (and (= x_162 0) ?v_152) (or (not (<= x_137 ?v_148)) (= x_161 x_142))) ?v_149) (and (and (and (= x_162 1) ?v_147) (xor x_142 x_156)) (= x_151 ?v_153))) (and (and (and (= x_162 2) ?v_147) (= x_142 x_156)) ?v_149))) (or (or (and (and (and (= x_163 0) (not ?v_150)) (or (not (<= x_139 ?v_143)) (= x_158 x_21))) ?v_151) (and (and (and (= x_163 1) ?v_150) (xor x_21 x_25)) (= x_153 (+ ?v_143 x_93)))) (and (and (and (= x_163 2) ?v_150) (= x_21 x_25)) ?v_151))) (or (or (and (and (and (= x_164 0) ?v_152) (or (not (<= x_141 ?v_148)) (= x_26 x_23))) ?v_155) (and (and (and (= x_164 1) ?v_147) (not ?v_154)) (= x_155 ?v_153))) (and (and (and (= x_164 2) ?v_147) ?v_154) ?v_155))) (or (and (and (and (and (and (and (and (and (and (= x_143 0) (= x_20 x_133)) (= ?v_156 x_126)) (<= (+ ?v_156 x_80) x_140)) (or ?v_159 (= x_21 x_16))) (= x_144 x_130)) (= x_145 x_131)) (= x_138 x_124)) ?v_157) ?v_158) (and (and (and (and (and (and (and (and (and (= x_143 1) (= x_145 x_130)) (= ?v_156 x_124)) (<= (+ ?v_156 x_81) x_138)) (or (and (and (= x_146 0) ?v_157) ?v_158) (and (and (= x_146 1) (= x_128 x_131)) (= x_142 (not x_128))))) (= x_147 x_133)) (= x_20 x_16)) (= x_22 x_18)) (= x_140 x_126)) ?v_159))) (or (or (and (and (and (= x_148 0) ?v_165) (or (not (<= x_123 ?v_161)) (= x_147 x_128))) ?v_162) (and (and (and (= x_148 1) ?v_160) (xor x_128 x_142)) (= x_137 ?v_166))) (and (and (and (= x_148 2) ?v_160) (= x_128 x_142)) ?v_162))) (or (or (and (and (and (= x_149 0) (not ?v_163)) (or (not (<= x_125 ?v_156)) (= x_144 x_17))) ?v_164) (and (and (and (= x_149 1) ?v_163) (xor x_17 x_21)) (= x_139 (+ ?v_156 x_93)))) (and (and (and (= x_149 2) ?v_163) (= x_17 x_21)) ?v_164))) (or (or (and (and (and (= x_150 0) ?v_165) (or (not (<= x_127 ?v_161)) (= x_22 x_19))) ?v_168) (and (and (and (= x_150 1) ?v_160) (not ?v_167)) (= x_141 ?v_166))) (and (and (and (= x_150 2) ?v_160) ?v_167) ?v_168))) (or (and (and (and (and (and (and (and (and (and (= x_129 0) (= x_16 x_119)) (= ?v_169 x_112)) (<= (+ ?v_169 x_80) x_126)) (or ?v_172 (= x_17 x_12))) (= x_130 x_116)) (= x_131 x_117)) (= x_124 x_110)) ?v_170) ?v_171) (and (and (and (and (and (and (and (and (and (= x_129 1) (= x_131 x_116)) (= ?v_169 x_110)) (<= (+ ?v_169 x_81) x_124)) (or (and (and (= x_132 0) ?v_170) ?v_171) (and (and (= x_132 1) (= x_114 x_117)) (= x_128 (not x_114))))) (= x_133 x_119)) (= x_16 x_12)) (= x_18 x_14)) (= x_126 x_112)) ?v_172))) (or (or (and (and (and (= x_134 0) ?v_178) (or (not (<= x_109 ?v_174)) (= x_133 x_114))) ?v_175) (and (and (and (= x_134 1) ?v_173) (xor x_114 x_128)) (= x_123 ?v_179))) (and (and (and (= x_134 2) ?v_173) (= x_114 x_128)) ?v_175))) (or (or (and (and (and (= x_135 0) (not ?v_176)) (or (not (<= x_111 ?v_169)) (= x_130 x_13))) ?v_177) (and (and (and (= x_135 1) ?v_176) (xor x_13 x_17)) (= x_125 (+ ?v_169 x_93)))) (and (and (and (= x_135 2) ?v_176) (= x_13 x_17)) ?v_177))) (or (or (and (and (and (= x_136 0) ?v_178) (or (not (<= x_113 ?v_174)) (= x_18 x_15))) ?v_181) (and (and (and (= x_136 1) ?v_173) (not ?v_180)) (= x_127 ?v_179))) (and (and (and (= x_136 2) ?v_173) ?v_180) ?v_181))) (or (and (and (and (and (and (and (and (and (and (= x_115 0) (= x_12 x_105)) (= ?v_182 x_98)) (<= (+ ?v_182 x_80) x_112)) (or ?v_185 (= x_13 x_8))) (= x_116 x_102)) (= x_117 x_103)) (= x_110 x_96)) ?v_183) ?v_184) (and (and (and (and (and (and (and (and (and (= x_115 1) (= x_117 x_102)) (= ?v_182 x_96)) (<= (+ ?v_182 x_81) x_110)) (or (and (and (= x_118 0) ?v_183) ?v_184) (and (and (= x_118 1) (= x_100 x_103)) (= x_114 (not x_100))))) (= x_119 x_105)) (= x_12 x_8)) (= x_14 x_10)) (= x_112 x_98)) ?v_185))) (or (or (and (and (and (= x_120 0) ?v_191) (or (not (<= x_95 ?v_187)) (= x_119 x_100))) ?v_188) (and (and (and (= x_120 1) ?v_186) (xor x_100 x_114)) (= x_109 ?v_192))) (and (and (and (= x_120 2) ?v_186) (= x_100 x_114)) ?v_188))) (or (or (and (and (and (= x_121 0) (not ?v_189)) (or (not (<= x_97 ?v_182)) (= x_116 x_9))) ?v_190) (and (and (and (= x_121 1) ?v_189) (xor x_9 x_13)) (= x_111 (+ ?v_182 x_93)))) (and (and (and (= x_121 2) ?v_189) (= x_9 x_13)) ?v_190))) (or (or (and (and (and (= x_122 0) ?v_191) (or (not (<= x_99 ?v_187)) (= x_14 x_11))) ?v_194) (and (and (and (= x_122 1) ?v_186) (not ?v_193)) (= x_113 ?v_192))) (and (and (and (= x_122 2) ?v_186) ?v_193) ?v_194))) (or (and (and (and (and (and (and (and (and (and (= x_101 0) (= x_8 x_90)) (= ?v_195 x_75)) (<= (+ ?v_195 x_80) x_98)) (or ?v_198 (= x_9 x_4))) (= x_102 x_85)) (= x_103 x_87)) (= x_96 x_71)) ?v_196) ?v_197) (and (and (and (and (and (and (and (and (and (= x_101 1) (= x_103 x_85)) (= ?v_195 x_71)) (<= (+ ?v_195 x_81) x_96)) (or (and (and (= x_104 0) ?v_196) ?v_197) (and (and (= x_104 1) (= x_78 x_87)) (= x_100 (not x_78))))) (= x_105 x_90)) (= x_8 x_4)) (= x_10 x_6)) (= x_98 x_75)) ?v_198))) (or (or (and (and (and (= x_106 0) ?v_204) (or (not (<= x_68 ?v_200)) (= x_105 x_78))) ?v_201) (and (and (and (= x_106 1) ?v_199) (xor x_78 x_100)) (= x_95 ?v_205))) (and (and (and (= x_106 2) ?v_199) (= x_78 x_100)) ?v_201))) (or (or (and (and (and (= x_107 0) (not ?v_202)) (or (not (<= x_72 ?v_195)) (= x_102 x_5))) ?v_203) (and (and (and (= x_107 1) ?v_202) (xor x_5 x_9)) (= x_97 (+ ?v_195 x_93)))) (and (and (and (= x_107 2) ?v_202) (= x_5 x_9)) ?v_203))) (or (or (and (and (and (= x_108 0) ?v_204) (or (not (<= x_76 ?v_200)) (= x_10 x_7))) ?v_207) (and (and (and (= x_108 1) ?v_199) (not ?v_206)) (= x_99 ?v_205))) (and (and (and (= x_108 2) ?v_199) ?v_206) ?v_207))) (or (and (and (and (and (and (and (and (and (and (= x_83 0) (= x_4 x_84)) (= ?v_208 x_74)) (<= (+ ?v_208 x_80) x_75)) (or ?v_211 (= x_5 x_0))) (= x_85 x_86)) (= x_87 x_88)) (= x_71 x_70)) ?v_209) ?v_210) (and (and (and (and (and (and (and (and (and (= x_83 1) (= x_87 x_86)) (= ?v_208 x_70)) (<= (+ ?v_208 x_81) x_71)) (or (and (and (= x_89 0) ?v_209) ?v_210) (and (and (= x_89 1) (= x_79 x_88)) (= x_78 (not x_79))))) (= x_90 x_84)) (= x_4 x_0)) (= x_6 x_2)) (= x_75 x_74)) ?v_211))) (or (or (and (and (and (= x_91 0) ?v_217) (or (not (<= x_69 ?v_213)) (= x_90 x_79))) ?v_214) (and (and (and (= x_91 1) ?v_212) (xor x_79 x_78)) (= x_68 ?v_218))) (and (and (and (= x_91 2) ?v_212) (= x_79 x_78)) ?v_214))) (or (or (and (and (and (= x_92 0) (not ?v_215)) (or (not (<= x_73 ?v_208)) (= x_85 x_1))) ?v_216) (and (and (and (= x_92 1) ?v_215) (xor x_1 x_5)) (= x_72 (+ ?v_208 x_93)))) (and (and (and (= x_92 2) ?v_215) (= x_1 x_5)) ?v_216))) (or (or (and (and (and (= x_94 0) ?v_217) (or (not (<= x_77 ?v_213)) (= x_6 x_3))) ?v_220) (and (and (and (= x_94 1) ?v_212) (not ?v_219)) (= x_76 ?v_218))) (and (and (and (= x_94 2) ?v_212) ?v_219) ?v_220))) (xor x_313 x_314)) (not (= x_319 x_311)))))))))))))))))))))))
(check-sat)
(exit)
